peakDumbCharging = 11100; 
Machine = anon_enum(16); 
machineSpeed = [3700,3700,3700,3700,3700,3700,3700,3700,3700,3700,3700,3700,3700,3700,3700,3700]; 
machineLoad = [3700,3700,3700,3700,3700,3700,3700,3700,3700,3700,3700,3700,3700,3700,3700,3700]; 
Car = anon_enum(8); 
demandCar = [11000,17880,24920,5680,9640,2480,1280,35120]; 
arrivalCar = [77,72,70,70,61,58,58,32]; 
departureCar = [84,78,86,75,65,61,60,45]; 
